50
    18    22    34    28    83    79    95    48    40    60     9    91    41    25   100    52     4    24     5    61    14    99    79    94    19    79    92    64    34    88    28    25    40    37    89    74    83    31    91    47    74    62    65    19    93    16    61     9    80    67
     2     4     8     9     6     6     5     6    10     8     2     5     5     6     7     1     9     3     6     3    10    10     8    10     6     4     7     6     5    10     2     4     4    10     6     1     9     3     7     7     9     5     8     2     8    10     6     9     3     7
  2088  2044  2261  2132  2112  2348  2301  2195  2318  2265  1934  2228  2208  2025  1948  1944  2324  2373  2208  2100  2263  2354  1949  2140  2160  2163  1911  2388  2307  1993  1972  2219  1965  2218  2217  2254  2185  2246  2166  2000  1959  2300  2385  2041  2097  2270  2101  2216  1914  1892
